Maximize
  obj: 0 x0  +  0 x1  +  0 x2  +  0 x3  +  0 x4  +  0 x5  +  0 x6  +  0 x7  +  0 x8  +  0 x9  +  0 x10  +  0 x11  +  0 x12  +  0 x13  +  0 x14  +  0 x15  +  0 x16  +  0 x17  +  0 x18  +  0 x19  +  0 x20  +  0 x21  +  0 x22  +  0 x23  +  0 x24  +  0 x25  +  0 x26  +  0 x27  +  0 x28  +  0 x29  +  0 x30  +  0 x31  +  0 x32  +  0 x33  +  0 x34  +  0 x35  +  0 x36  +  0 x37  +  0 x38  +  0 x39  -101.00000000 x40  +  56.00000000 x41  -180.00000000 x42  -178.00000000 x43  -88.00000000 x44  -39.00000000 x45  +  93.00000000 x46  -132.00000000 x47  +  162.00000000 x48  +  66.00000000 x49  +  146.00000000 x50  +  1.00000000 x51  +  114.00000000 x52  -105.00000000 x53  -155.00000000 x54  -167.00000000 x55  -30.00000000 x56  -57.00000000 x57  +  97.00000000 x58  -132.00000000 x59  -140.00000000 x60  +  108.00000000 x61  +  177.00000000 x62  -142.00000000 x63  +  132.00000000 x64  -30.00000000 x65  +  145.00000000 x66  +  145.00000000 x67  -26.00000000 x68  -109.00000000 x69  -17.00000000 x70  +  74.00000000 x71  -181.00000000 x72  +  3.00000000 x73  +  96.00000000 x74  -69.00000000 x75  -164.00000000 x76  -12.00000000 x77  -1.00000000 x78  -130.00000000 x79 
Subject to
  c1: +0 x0 +17 x1 +4 x2 +18 x3 +16 x4 +0 x5 +0 x6 +0 x7 +13 x8 +0 x9 +10 x10 +0 x11 +0 x12 +6 x13 +9 x14 +11 x15 +0 x16 +0 x17 +12 x18 +0 x19 +18 x20 +0 x21 +6 x22 +0 x23 +0 x24 +0 x25 +10 x26 +0 x27 +0 x28 +0 x29 +14 x30 -1 x31 +5 x32 +0 x33 +7 x34 +0 x35 +2 x36 +0 x37 +0 x38 +0 x39 +7 x40 <= 61
  c2: +15 x0 +0 x1 -1 x2 +0 x3 +3 x4 +0 x5 +0 x6 +5 x7 +0 x8 +0 x9 +0 x10 +0 x11 +0 x12 -1 x13 +0 x14 +0 x15 +0 x16 +14 x17 +17 x18 +9 x19 +0 x20 +3 x21 +0 x22 +0 x23 +0 x24 +15 x25 +0 x26 +0 x27 +18 x28 +8 x29 +0 x30 +0 x31 +0 x32 +0 x33 +5 x34 +0 x35 +10 x36 +14 x37 +0 x38 +19 x39 +6 x41 <= 59
  c3: +11 x0 +0 x1 +16 x2 +15 x3 +9 x4 -1 x5 +0 x6 +0 x7 +6 x8 +6 x9 +0 x10 +5 x11 +16 x12 +5 x13 +0 x14 +5 x15 +0 x16 +0 x17 +0 x18 +11 x19 +0 x20 +16 x21 +0 x22 +2 x23 +0 x24 +0 x25 +0 x26 +0 x27 +0 x28 +0 x29 +0 x30 +0 x31 +0 x32 +0 x33 +0 x34 +0 x35 +0 x36 +0 x37 +18 x38 +0 x39 +14 x42 <= 52
  c4: +17 x0 +19 x1 +0 x2 +5 x3 +4 x4 +11 x5 +0 x6 +4 x7 +5 x8 +0 x9 +0 x10 +4 x11 +2 x12 +1 x13 +0 x14 +0 x15 +1 x16 +14 x17 +0 x18 +16 x19 +0 x20 +13 x21 +0 x22 +0 x23 +0 x24 +0 x25 +0 x26 +0 x27 +11 x28 +20 x29 +0 x30 +0 x31 +2 x32 +1 x33 +0 x34 +0 x35 +1 x36 +0 x37 +6 x38 +0 x39 -1 x43 <= 61
  c5: +0 x0 +10 x1 +18 x2 +11 x3 +7 x4 +0 x5 +7 x6 +15 x7 +0 x8 +0 x9 +0 x10 +11 x11 +0 x12 +18 x13 +0 x14 +0 x15 +10 x16 +0 x17 -1 x18 +0 x19 +6 x20 +0 x21 +15 x22 +0 x23 +3 x24 +0 x25 +16 x26 +10 x27 +0 x28 +0 x29 +0 x30 +0 x31 +0 x32 +0 x33 +0 x34 +17 x35 +0 x36 +0 x37 +0 x38 +0 x39 +10 x44 <= 79
  c6: +3 x0 +0 x1 +14 x2 +15 x3 +6 x4 +0 x5 +19 x6 +0 x7 +14 x8 +10 x9 +0 x10 +2 x11 +15 x12 +12 x13 +9 x14 +0 x15 +0 x16 +0 x17 +11 x18 +0 x19 +1 x20 +2 x21 +0 x22 +0 x23 +0 x24 +0 x25 +7 x26 +0 x27 +0 x28 +13 x29 +0 x30 +0 x31 +0 x32 +0 x33 +8 x34 +5 x35 +8 x36 +12 x37 +8 x38 +5 x39 +9 x45 <= 100
  c7: +0 x0 +0 x1 +0 x2 +17 x3 +6 x4 +9 x5 +18 x6 +5 x7 +16 x8 +4 x9 +0 x10 +0 x11 +13 x12 +0 x13 +5 x14 +17 x15 +6 x16 +9 x17 +0 x18 +0 x19 +10 x20 +13 x21 +5 x22 +0 x23 +0 x24 +20 x25 +0 x26 +8 x27 +14 x28 +0 x29 +1 x30 +0 x31 +13 x32 +2 x33 +20 x34 +0 x35 +0 x36 +1 x37 +0 x38 +4 x39 +17 x46 <= 61
  c8: +0 x0 +0 x1 +11 x2 +18 x3 +12 x4 +0 x5 +0 x6 +0 x7 +4 x8 +0 x9 +1 x10 +0 x11 +17 x12 +0 x13 +20 x14 +17 x15 +0 x16 +0 x17 +0 x18 +0 x19 +10 x20 +11 x21 +0 x22 +9 x23 +0 x24 +8 x25 +16 x26 +0 x27 +0 x28 +13 x29 +0 x30 +9 x31 +0 x32 +0 x33 +14 x34 +17 x35 +0 x36 +0 x37 +2 x38 +0 x39 +3 x47 <= 93
  c9: +0 x0 +0 x1 +10 x2 +0 x3 +0 x4 +17 x5 +0 x6 +0 x7 +0 x8 +0 x9 +0 x10 +9 x11 +12 x12 +0 x13 +0 x14 +0 x15 +0 x16 +10 x17 +0 x18 +4 x19 +0 x20 +0 x21 +0 x22 +0 x23 +0 x24 +12 x25 +0 x26 +10 x27 +14 x28 +7 x29 +0 x30 -1 x31 +0 x32 +0 x33 +0 x34 +0 x35 +0 x36 +0 x37 +0 x38 +0 x39 +20 x48 <= 82
  c10: +0 x0 +0 x1 +14 x2 +6 x3 +0 x4 +0 x5 +10 x6 +0 x7 +4 x8 +16 x9 +11 x10 +9 x11 +13 x12 +0 x13 +0 x14 +0 x15 +0 x16 +0 x17 +15 x18 +7 x19 +0 x20 +0 x21 +0 x22 +8 x23 +0 x24 +0 x25 +0 x26 +10 x27 +20 x28 +9 x29 +0 x30 +16 x31 +20 x32 +14 x33 +14 x34 +17 x35 +0 x36 +0 x37 +7 x38 +0 x39 +9 x49 <= 82
  c11: +0 x0 +0 x1 -1 x2 +0 x3 +0 x4 +5 x5 +0 x6 +0 x7 +0 x8 +0 x9 +0 x10 +0 x11 +7 x12 +0 x13 +0 x14 +0 x15 +0 x16 +0 x17 +1 x18 +6 x19 +0 x20 +0 x21 +11 x22 +0 x23 +0 x24 +8 x25 +1 x26 +0 x27 +0 x28 -1 x29 +13 x30 +0 x31 +0 x32 +0 x33 +4 x34 +0 x35 +0 x36 +18 x37 +0 x38 +6 x39 +19 x50 <= 80
  c12: +0 x0 +0 x1 +15 x2 +0 x3 +17 x4 +0 x5 +0 x6 -1 x7 +0 x8 +0 x9 +0 x10 +0 x11 +0 x12 +20 x13 +18 x14 +16 x15 +10 x16 +12 x17 +19 x18 +5 x19 +0 x20 +0 x21 +19 x22 +0 x23 +0 x24 +0 x25 +7 x26 +0 x27 +0 x28 +1 x29 +2 x30 +14 x31 +0 x32 +0 x33 +0 x34 -1 x35 +0 x36 +14 x37 +0 x38 +15 x39 +3 x51 <= 68
  c13: +0 x0 +12 x1 +19 x2 +0 x3 +19 x4 +0 x5 +6 x6 +3 x7 +0 x8 +0 x9 +0 x10 +17 x11 +19 x12 +15 x13 +20 x14 +0 x15 +0 x16 -1 x17 +0 x18 +8 x19 +0 x20 +16 x21 +14 x22 +1 x23 +0 x24 +15 x25 +0 x26 +8 x27 +0 x28 +12 x29 +0 x30 +11 x31 +6 x32 +12 x33 +0 x34 +0 x35 +0 x36 +6 x37 +0 x38 +20 x39 +11 x52 <= 89
  c14: +3 x0 +0 x1 +8 x2 +9 x3 +0 x4 +0 x5 +0 x6 +0 x7 +0 x8 +0 x9 +17 x10 +4 x11 +0 x12 +8 x13 +0 x14 +9 x15 +0 x16 +0 x17 +18 x18 +0 x19 +16 x20 +8 x21 +0 x22 +0 x23 +0 x24 +0 x25 +10 x26 +0 x27 +0 x28 +0 x29 +0 x30 +0 x31 +0 x32 +0 x33 +0 x34 +0 x35 -1 x36 +0 x37 +7 x38 +0 x39 +4 x53 <= 75
  c15: +0 x0 +0 x1 +0 x2 +0 x3 +10 x4 +14 x5 +0 x6 +0 x7 +0 x8 +20 x9 +2 x10 +0 x11 +13 x12 +9 x13 +0 x14 +0 x15 +15 x16 +0 x17 +20 x18 +2 x19 -1 x20 +5 x21 +16 x22 +0 x23 +0 x24 +0 x25 +0 x26 +0 x27 +0 x28 +0 x29 +0 x30 +0 x31 +0 x32 +5 x33 +0 x34 +3 x35 +0 x36 +2 x37 +13 x38 +0 x39 +20 x54 <= 96
  c16: +0 x0 +3 x1 +0 x2 +9 x3 -1 x4 +0 x5 +0 x6 +4 x7 +16 x8 +11 x9 +20 x10 +19 x11 +0 x12 +0 x13 +0 x14 +0 x15 +0 x16 +9 x17 +20 x18 +0 x19 +16 x20 +0 x21 +0 x22 +0 x23 +20 x24 +0 x25 +0 x26 +1 x27 +0 x28 +0 x29 +19 x30 +0 x31 +5 x32 +6 x33 +16 x34 +16 x35 +0 x36 +13 x37 +14 x38 +6 x39 +1 x55 <= 92
  c17: +0 x0 +0 x1 +0 x2 +0 x3 +0 x4 +0 x5 +17 x6 +19 x7 +15 x8 +14 x9 +0 x10 +20 x11 +0 x12 +5 x13 +0 x14 +16 x15 +17 x16 +2 x17 +0 x18 +0 x19 +0 x20 +0 x21 +0 x22 +0 x23 +0 x24 +6 x25 +11 x26 +2 x27 +2 x28 +5 x29 +0 x30 +0 x31 +15 x32 +1 x33 +5 x34 +8 x35 +9 x36 +8 x37 +0 x38 +0 x39 +8 x56 <= 64
  c18: +1 x0 +17 x1 +4 x2 +0 x3 +8 x4 +0 x5 +16 x6 +0 x7 +0 x8 +9 x9 +0 x10 +0 x11 +0 x12 +0 x13 +5 x14 +9 x15 +0 x16 +11 x17 +3 x18 +20 x19 +0 x20 +0 x21 +17 x22 +14 x23 +13 x24 +15 x25 +8 x26 +10 x27 +11 x28 +0 x29 +0 x30 +0 x31 +13 x32 +0 x33 +10 x34 +11 x35 +4 x36 +2 x37 +0 x38 +0 x39 +20 x57 <= 98
  c19: +0 x0 +0 x1 +17 x2 +0 x3 +11 x4 +0 x5 +0 x6 +11 x7 +0 x8 +13 x9 +12 x10 +0 x11 +0 x12 +15 x13 +9 x14 +18 x15 +0 x16 +0 x17 +0 x18 +0 x19 +15 x20 +0 x21 +0 x22 +15 x23 +0 x24 +1 x25 +0 x26 +19 x27 +0 x28 +6 x29 +0 x30 +0 x31 +0 x32 +18 x33 +0 x34 +0 x35 +12 x36 +0 x37 +0 x38 +5 x39 +14 x58 <= 84
  c20: +0 x0 +0 x1 +0 x2 +2 x3 +9 x4 +10 x5 +0 x6 +0 x7 +0 x8 +0 x9 +12 x10 +0 x11 +0 x12 +4 x13 +14 x14 +0 x15 +0 x16 +13 x17 +13 x18 +0 x19 +0 x20 +10 x21 +0 x22 +0 x23 +6 x24 +12 x25 +0 x26 +0 x27 +0 x28 +0 x29 +0 x30 +0 x31 +3 x32 +11 x33 +19 x34 +4 x35 +8 x36 +0 x37 +12 x38 +0 x39 +7 x59 <= 60
  c21: +0 x0 +1 x1 +13 x2 +0 x3 +19 x4 -1 x5 +3 x6 +0 x7 +13 x8 +0 x9 +10 x10 +16 x11 +0 x12 +0 x13 +3 x14 +10 x15 +0 x16 +2 x17 +0 x18 +0 x19 +0 x20 +7 x21 +3 x22 +15 x23 +0 x24 +18 x25 +14 x26 +10 x27 +0 x28 +9 x29 +0 x30 +11 x31 +1 x32 +0 x33 +18 x34 +0 x35 +11 x36 +9 x37 +0 x38 +0 x39 +2 x60 <= 55
  c22: +0 x0 +19 x1 +0 x2 +12 x3 -1 x4 +11 x5 +12 x6 +8 x7 +0 x8 +4 x9 +16 x10 -1 x11 +0 x12 +13 x13 +0 x14 +5 x15 +19 x16 +0 x17 +0 x18 +18 x19 +8 x20 +13 x21 +16 x22 +0 x23 +7 x24 +18 x25 +0 x26 +0 x27 +19 x28 +0 x29 +12 x30 +0 x31 +2 x32 +0 x33 +3 x34 +0 x35 +18 x36 +0 x37 +0 x38 +18 x39 +19 x61 <= 61
  c23: +0 x0 +10 x1 +0 x2 +0 x3 +0 x4 +0 x5 +12 x6 +0 x7 +8 x8 +0 x9 +20 x10 +9 x11 +0 x12 +15 x13 +0 x14 +0 x15 +0 x16 +17 x17 +9 x18 +0 x19 +0 x20 +0 x21 +0 x22 +0 x23 +17 x24 +6 x25 +0 x26 +0 x27 +0 x28 +0 x29 +4 x30 +10 x31 +0 x32 +14 x33 +0 x34 +14 x35 +19 x36 +0 x37 +0 x38 +0 x39 +11 x62 <= 71
  c24: +0 x0 +0 x1 +5 x2 +20 x3 +0 x4 +0 x5 +0 x6 +20 x7 -1 x8 +9 x9 +18 x10 +3 x11 +11 x12 +0 x13 +0 x14 +0 x15 +0 x16 +0 x17 +0 x18 +0 x19 +10 x20 +0 x21 +16 x22 +0 x23 +5 x24 +0 x25 +0 x26 +0 x27 +0 x28 +0 x29 +19 x30 +5 x31 +9 x32 +0 x33 +0 x34 +16 x35 +8 x36 +0 x37 +19 x38 +0 x39 +4 x63 <= 57
  c25: +2 x0 +1 x1 +0 x2 +13 x3 +0 x4 +14 x5 +0 x6 +0 x7 +0 x8 +7 x9 +20 x10 +0 x11 +0 x12 +3 x13 +0 x14 +0 x15 +16 x16 +12 x17 +7 x18 +0 x19 +3 x20 +0 x21 +0 x22 +20 x23 +6 x24 +19 x25 +3 x26 +0 x27 +0 x28 +0 x29 +0 x30 +0 x31 +0 x32 +2 x33 +20 x34 -1 x35 +4 x36 +0 x37 +19 x38 +7 x39 +18 x64 <= 98
  c26: +11 x0 +0 x1 +10 x2 +0 x3 +0 x4 +0 x5 +8 x6 +0 x7 +0 x8 +19 x9 +0 x10 +0 x11 +0 x12 +0 x13 +3 x14 +0 x15 +0 x16 +0 x17 +13 x18 +20 x19 +0 x20 +0 x21 +15 x22 +0 x23 +4 x24 +3 x25 +11 x26 +11 x27 +0 x28 +0 x29 -1 x30 +16 x31 +14 x32 +0 x33 +1 x34 +17 x35 +0 x36 +6 x37 +0 x38 +0 x39 +10 x65 <= 74
  c27: +0 x0 +9 x1 +3 x2 +0 x3 +15 x4 +17 x5 +0 x6 +0 x7 +5 x8 +12 x9 +0 x10 +8 x11 +0 x12 +0 x13 +0 x14 +0 x15 +4 x16 +2 x17 +0 x18 +20 x19 +0 x20 +10 x21 +1 x22 +0 x23 +14 x24 +11 x25 +0 x26 +0 x27 +0 x28 +0 x29 +10 x30 +7 x31 +4 x32 +0 x33 +0 x34 +0 x35 +5 x36 +0 x37 +13 x38 +17 x39 +17 x66 <= 73
  c28: +0 x0 -1 x1 +17 x2 +0 x3 +0 x4 +0 x5 +0 x6 +9 x7 +0 x8 +6 x9 +15 x10 +7 x11 +10 x12 +6 x13 +8 x14 +3 x15 +0 x16 +10 x17 +0 x18 +0 x19 +4 x20 +0 x21 +0 x22 +0 x23 +14 x24 +17 x25 +19 x26 -1 x27 +5 x28 +0 x29 +16 x30 +0 x31 +7 x32 +8 x33 -1 x34 +12 x35 +0 x36 +7 x37 +0 x38 +0 x39 +17 x67 <= 93
  c29: +4 x0 +0 x1 +0 x2 +0 x3 +0 x4 +0 x5 +0 x6 +14 x7 +0 x8 +0 x9 +18 x10 +0 x11 +10 x12 +5 x13 +18 x14 +0 x15 +0 x16 +19 x17 +0 x18 +0 x19 +0 x20 +14 x21 +4 x22 +15 x23 +0 x24 +9 x25 +0 x26 +14 x27 +0 x28 +19 x29 -1 x30 +0 x31 +17 x32 +0 x33 +7 x34 +10 x35 +2 x36 +6 x37 +0 x38 +0 x39 +10 x68 <= 59
  c30: +0 x0 +8 x1 +16 x2 +12 x3 +6 x4 +0 x5 +4 x6 +0 x7 +0 x8 +0 x9 +13 x10 +0 x11 +0 x12 +8 x13 +1 x14 +19 x15 +0 x16 +20 x17 +4 x18 +12 x19 +0 x20 +0 x21 +0 x22 +0 x23 +0 x24 +0 x25 +19 x26 +8 x27 +0 x28 +0 x29 +14 x30 +0 x31 +0 x32 +13 x33 +18 x34 +0 x35 -1 x36 +1 x37 +0 x38 +4 x39 +3 x69 <= 90
  c31: +8 x0 +6 x1 +12 x2 +0 x3 +0 x4 +13 x5 +14 x6 +16 x7 +0 x8 +0 x9 +16 x10 +0 x11 +0 x12 +0 x13 +0 x14 +15 x15 +0 x16 +20 x17 +0 x18 +0 x19 +0 x20 +5 x21 +15 x22 +0 x23 +0 x24 +7 x25 +0 x26 +0 x27 +8 x28 -1 x29 +0 x30 +0 x31 +16 x32 +0 x33 +7 x34 +0 x35 +2 x36 +0 x37 +0 x38 +7 x39 +3 x70 <= 99
  c32: +20 x0 +9 x1 +17 x2 +0 x3 +16 x4 +17 x5 +0 x6 +0 x7 +0 x8 +0 x9 +20 x10 +0 x11 +0 x12 +11 x13 +11 x14 +0 x15 +0 x16 +12 x17 +0 x18 +2 x19 +8 x20 +0 x21 +0 x22 +16 x23 +4 x24 +18 x25 +11 x26 +0 x27 +0 x28 +0 x29 +0 x30 +8 x31 +0 x32 +2 x33 +8 x34 +0 x35 +4 x36 +19 x37 +11 x38 +0 x39 +2 x71 <= 95
  c33: +10 x0 +0 x1 +15 x2 +9 x3 +0 x4 +0 x5 +19 x6 +0 x7 +14 x8 +3 x9 +0 x10 +7 x11 +0 x12 +20 x13 +0 x14 +0 x15 +0 x16 +0 x17 +4 x18 +3 x19 +2 x20 +0 x21 +0 x22 +17 x23 +10 x24 +6 x25 +0 x26 +0 x27 +19 x28 -1 x29 +17 x30 +17 x31 +2 x32 +11 x33 +0 x34 -1 x35 +0 x36 +0 x37 +0 x38 +0 x39 +9 x72 <= 73
  c34: +16 x0 +0 x1 +0 x2 +0 x3 +0 x4 +16 x5 +0 x6 +0 x7 +6 x8 +0 x9 +11 x10 +2 x11 +11 x12 +2 x13 +0 x14 +0 x15 +17 x16 +5 x17 +12 x18 +18 x19 +11 x20 +0 x21 +0 x22 +0 x23 +15 x24 +17 x25 +0 x26 +0 x27 +1 x28 +9 x29 +0 x30 +0 x31 +0 x32 +0 x33 +0 x34 +0 x35 +0 x36 +13 x37 +1 x38 +7 x39 +14 x73 <= 50
  c35: +0 x0 +0 x1 +0 x2 +0 x3 +18 x4 +0 x5 +13 x6 +19 x7 +0 x8 +11 x9 +2 x10 +0 x11 +0 x12 +0 x13 +0 x14 +3 x15 +15 x16 -1 x17 +8 x18 +8 x19 +18 x20 +13 x21 +11 x22 +0 x23 +18 x24 +0 x25 +0 x26 +0 x27 +0 x28 +1 x29 +0 x30 +9 x31 +5 x32 +17 x33 +0 x34 +7 x35 +0 x36 +16 x37 +8 x38 +18 x39 +20 x74 <= 56
  c36: +6 x0 +7 x1 +0 x2 +18 x3 +19 x4 +0 x5 +7 x6 +0 x7 +0 x8 +0 x9 +19 x10 +0 x11 +0 x12 +0 x13 +2 x14 +0 x15 +0 x16 +11 x17 -1 x18 +0 x19 -1 x20 +5 x21 +0 x22 -1 x23 +8 x24 +4 x25 +0 x26 +0 x27 +0 x28 +13 x29 +0 x30 +16 x31 +17 x32 +0 x33 +0 x34 +5 x35 +0 x36 -1 x37 +0 x38 +0 x39 +14 x75 <= 76
  c37: +0 x0 +0 x1 +0 x2 +2 x3 +0 x4 +13 x5 +13 x6 +0 x7 +0 x8 +0 x9 +19 x10 +19 x11 +6 x12 +13 x13 +18 x14 +0 x15 +13 x16 +0 x17 +16 x18 +0 x19 +5 x20 +0 x21 +0 x22 +10 x23 +0 x24 +0 x25 +17 x26 +0 x27 +0 x28 +0 x29 +0 x30 +0 x31 +0 x32 +0 x33 +14 x34 +0 x35 +0 x36 +7 x37 +0 x38 +0 x39 +11 x76 <= 100
  c38: +10 x0 +0 x1 -1 x2 +0 x3 +0 x4 +0 x5 +8 x6 +0 x7 +0 x8 +0 x9 +0 x10 +1 x11 +10 x12 +12 x13 +0 x14 +0 x15 +0 x16 +0 x17 +9 x18 +0 x19 +0 x20 +0 x21 +0 x22 +0 x23 +3 x24 -1 x25 +7 x26 +0 x27 +17 x28 +0 x29 +0 x30 +0 x31 +15 x32 +0 x33 +16 x34 +0 x35 +0 x36 +0 x37 +8 x38 +0 x39 +6 x77 <= 92
  c39: +0 x0 +12 x1 +0 x2 +13 x3 +0 x4 +13 x5 +0 x6 +0 x7 +0 x8 +0 x9 +0 x10 +0 x11 +7 x12 +0 x13 +10 x14 +14 x15 +0 x16 +0 x17 +11 x18 +18 x19 +0 x20 +4 x21 +16 x22 +0 x23 +0 x24 +0 x25 +2 x26 +6 x27 +3 x28 +0 x29 +5 x30 +0 x31 +14 x32 +0 x33 +1 x34 +0 x35 +0 x36 +16 x37 +16 x38 +0 x39 +10 x78 <= 69
  c40: +0 x0 +0 x1 +0 x2 +16 x3 +6 x4 +0 x5 +0 x6 +5 x7 +9 x8 +14 x9 +0 x10 +15 x11 +2 x12 +0 x13 +0 x14 +0 x15 +0 x16 +0 x17 +0 x18 +12 x19 +0 x20 +18 x21 +0 x22 -1 x23 +3 x24 +0 x25 +11 x26 +0 x27 +0 x28 +7 x29 +0 x30 +0 x31 +16 x32 +16 x33 +3 x34 +6 x35 +3 x36 +0 x37 +19 x38 +7 x39 +13 x79 <= 55
  c41: +16 x0 +12 x1 +0 x2 +0 x3 +14 x4 +17 x5 +2 x6 +0 x7 +0 x8 +9 x9 +6 x10 +0 x11 +18 x12 +0 x13 +0 x14 +15 x15 -1 x16 +0 x17 +15 x18 +0 x19 +4 x20 +11 x21 +2 x22 +5 x23 +1 x24 +0 x25 +0 x26 +0 x27 +15 x28 +9 x29 +10 x30 +0 x31 +10 x32 +11 x33 +5 x34 +7 x35 -1 x36 +19 x37 +0 x38 +19 x39 <= 73
  c42: +8 x0 +0 x1 +0 x2 +0 x3 +0 x4 +0 x5 +0 x6 +0 x7 +0 x8 +0 x9 +1 x10 +18 x11 +5 x12 +0 x13 +8 x14 +19 x15 +14 x16 +20 x17 +0 x18 +9 x19 +19 x20 +0 x21 +0 x22 +0 x23 +0 x24 +0 x25 +0 x26 +0 x27 +19 x28 +13 x29 +0 x30 +0 x31 +0 x32 +15 x33 +0 x34 +0 x35 +0 x36 +0 x37 +0 x38 +6 x39 <= 73
  c43: -1 x0 +18 x1 +16 x2 +0 x3 +10 x4 +0 x5 +0 x6 +0 x7 +8 x8 +10 x9 +16 x10 +0 x11 +20 x12 +20 x13 +0 x14 +2 x15 +0 x16 +19 x17 +4 x18 +0 x19 +5 x20 +19 x21 +0 x22 +0 x23 -1 x24 +0 x25 +0 x26 +18 x27 +0 x28 +0 x29 +0 x30 +0 x31 +0 x32 +0 x33 +0 x34 +0 x35 +0 x36 +0 x37 +0 x38 +0 x39 <= 73
  c44: +0 x0 +0 x1 +1 x2 +0 x3 +3 x4 +0 x5 +7 x6 +7 x7 +0 x8 +7 x9 +20 x10 +15 x11 +0 x12 +1 x13 +3 x14 +0 x15 +0 x16 +15 x17 +0 x18 +0 x19 +0 x20 +12 x21 +0 x22 +14 x23 +19 x24 +0 x25 +0 x26 +0 x27 +0 x28 +7 x29 +9 x30 +0 x31 +9 x32 +17 x33 +0 x34 +19 x35 +9 x36 +2 x37 +0 x38 +0 x39 <= 87
  c45: +15 x0 +8 x1 +0 x2 +0 x3 +14 x4 +0 x5 +0 x6 +0 x7 +3 x8 +20 x9 +12 x10 +4 x11 +0 x12 +0 x13 +18 x14 +13 x15 +0 x16 +3 x17 +0 x18 +0 x19 +0 x20 -1 x21 +0 x22 +0 x23 +8 x24 +0 x25 +0 x26 +20 x27 +0 x28 +0 x29 +0 x30 +7 x31 +0 x32 +0 x33 +4 x34 +9 x35 +0 x36 +0 x37 +0 x38 +19 x39 <= 72
  c46: +0 x0 +2 x1 +0 x2 +0 x3 +0 x4 +4 x5 +18 x6 +0 x7 +0 x8 +3 x9 +0 x10 +12 x11 +0 x12 +16 x13 +16 x14 +14 x15 +0 x16 +0 x17 +11 x18 +0 x19 +7 x20 +0 x21 +0 x22 +11 x23 +6 x24 +5 x25 +1 x26 +0 x27 +2 x28 +0 x29 -1 x30 +0 x31 +16 x32 +14 x33 +1 x34 +17 x35 +15 x36 +11 x37 +2 x38 +0 x39 <= 69
  c47: +7 x0 -1 x1 +0 x2 +0 x3 +0 x4 +0 x5 +11 x6 +12 x7 +0 x8 +0 x9 +0 x10 +3 x11 +0 x12 +0 x13 +0 x14 +6 x15 +14 x16 +0 x17 +5 x18 +0 x19 +0 x20 +16 x21 +2 x22 +0 x23 +0 x24 +0 x25 +2 x26 +0 x27 +13 x28 +0 x29 +9 x30 +0 x31 +0 x32 +7 x33 +0 x34 +0 x35 +3 x36 +0 x37 +11 x38 +20 x39 <= 78
  c48: +1 x0 +20 x1 -1 x2 +0 x3 +0 x4 +13 x5 +14 x6 +9 x7 +10 x8 +0 x9 +0 x10 +15 x11 +12 x12 +0 x13 +0 x14 +0 x15 +0 x16 +4 x17 +0 x18 +0 x19 +0 x20 +15 x21 +0 x22 +0 x23 +0 x24 +0 x25 +16 x26 +15 x27 +0 x28 +6 x29 +14 x30 +19 x31 +5 x32 +12 x33 +0 x34 +0 x35 +4 x36 +0 x37 +0 x38 +3 x39 <= 87
  c49: +0 x0 +17 x1 +12 x2 +6 x3 +0 x4 +0 x5 +11 x6 +0 x7 +0 x8 +0 x9 +10 x10 +2 x11 +12 x12 +6 x13 +0 x14 +2 x15 +0 x16 +6 x17 +4 x18 +0 x19 +19 x20 +0 x21 +15 x22 +3 x23 +0 x24 +5 x25 +0 x26 +4 x27 +14 x28 +16 x29 +3 x30 +14 x31 +0 x32 +18 x33 +0 x34 +0 x35 +19 x36 +0 x37 +2 x38 +4 x39 <= 91
  c50: +17 x0 +2 x1 +14 x2 +4 x3 +3 x4 +0 x5 +0 x6 +15 x7 +0 x8 +0 x9 +0 x10 +0 x11 +8 x12 +17 x13 +0 x14 +0 x15 +0 x16 +15 x17 +3 x18 +0 x19 +0 x20 +7 x21 +0 x22 +14 x23 +0 x24 +14 x25 +0 x26 +0 x27 +0 x28 +0 x29 +0 x30 +2 x31 +2 x32 +6 x33 +7 x34 +0 x35 +15 x36 +7 x37 +9 x38 +0 x39 <= 86
  c51: +11 x0 +10 x1 +0 x2 +1 x3 -1 x4 +0 x5 +11 x6 +0 x7 +0 x8 +0 x9 +7 x10 +0 x11 +1 x12 +3 x13 +6 x14 +0 x15 +5 x16 +14 x17 +8 x18 +1 x19 +11 x20 +19 x21 +14 x22 +0 x23 +0 x24 +0 x25 +0 x26 -1 x27 +16 x28 +0 x29 +0 x30 +0 x31 +0 x32 +0 x33 +0 x34 +1 x35 +0 x36 +0 x37 +0 x38 +0 x39 <= 97
  c52: +0 x0 +6 x1 +17 x2 +13 x3 +0 x4 +0 x5 +0 x6 +17 x7 +0 x8 +0 x9 +0 x10 +17 x11 +0 x12 +0 x13 +0 x14 +0 x15 +7 x16 +9 x17 +10 x18 +0 x19 +0 x20 +1 x21 +6 x22 +10 x23 +7 x24 +0 x25 +0 x26 +0 x27 +0 x28 +0 x29 +4 x30 +0 x31 +0 x32 +5 x33 +0 x34 +0 x35 +0 x36 +0 x37 +0 x38 +0 x39 <= 96
  c53: +7 x0 -1 x1 +0 x2 +12 x3 +0 x4 +0 x5 -1 x6 +0 x7 +16 x8 +14 x9 +20 x10 +0 x11 +7 x12 +0 x13 +8 x14 +12 x15 +0 x16 +0 x17 +0 x18 +17 x19 +0 x20 +18 x21 +20 x22 +0 x23 +0 x24 +0 x25 +0 x26 +7 x27 +0 x28 +0 x29 +0 x30 +0 x31 +19 x32 +0 x33 +8 x34 +17 x35 +0 x36 +0 x37 +8 x38 +0 x39 <= 97
  c54: +0 x0 +10 x1 +6 x2 +0 x3 +3 x4 +5 x5 +1 x6 +0 x7 +8 x8 +12 x9 +2 x10 +0 x11 +0 x12 +19 x13 +8 x14 +0 x15 +0 x16 +15 x17 +16 x18 +0 x19 +0 x20 +18 x21 +8 x22 +17 x23 +0 x24 +5 x25 +0 x26 +0 x27 +0 x28 +5 x29 +0 x30 +10 x31 +16 x32 +0 x33 +0 x34 +0 x35 +6 x36 +15 x37 +0 x38 +0 x39 <= 92
  c55: +0 x0 +0 x1 +0 x2 +11 x3 +0 x4 +0 x5 +0 x6 +0 x7 +5 x8 +6 x9 +4 x10 +0 x11 +3 x12 +0 x13 +4 x14 +0 x15 +9 x16 +0 x17 +0 x18 +9 x19 +9 x20 +16 x21 +0 x22 +11 x23 +0 x24 +0 x25 +18 x26 +13 x27 +0 x28 +19 x29 +9 x30 +0 x31 +0 x32 +18 x33 +18 x34 +1 x35 +0 x36 +0 x37 +0 x38 +0 x39 <= 77
  c56: +2 x0 +12 x1 +0 x2 +0 x3 +0 x4 +9 x5 -1 x6 +12 x7 +9 x8 +3 x9 +0 x10 +7 x11 +0 x12 +14 x13 +20 x14 +14 x15 +6 x16 +6 x17 +13 x18 +0 x19 +0 x20 +11 x21 +0 x22 +19 x23 +9 x24 +0 x25 +0 x26 +0 x27 +9 x28 +0 x29 +0 x30 +0 x31 +0 x32 +0 x33 +0 x34 +0 x35 +0 x36 +0 x37 +10 x38 +0 x39 <= 94
  c57: +14 x0 +0 x1 +9 x2 +11 x3 +20 x4 +0 x5 +7 x6 +0 x7 +14 x8 +16 x9 +0 x10 +3 x11 +11 x12 +1 x13 +0 x14 +0 x15 +0 x16 +0 x17 +0 x18 +7 x19 +0 x20 +0 x21 +1 x22 +14 x23 +0 x24 +18 x25 +4 x26 +0 x27 +0 x28 +0 x29 +0 x30 +0 x31 +0 x32 +0 x33 +0 x34 +0 x35 +0 x36 +0 x37 +0 x38 +0 x39 <= 66
  c58: +0 x0 +11 x1 +10 x2 +10 x3 +15 x4 +0 x5 +5 x6 +0 x7 +19 x8 +0 x9 +4 x10 +0 x11 +8 x12 +0 x13 +0 x14 +10 x15 +0 x16 +1 x17 +7 x18 +18 x19 +0 x20 +0 x21 +0 x22 +0 x23 +0 x24 +20 x25 +0 x26 +9 x27 +15 x28 +13 x29 +18 x30 -1 x31 +0 x32 +0 x33 +6 x34 +12 x35 +0 x36 +0 x37 +0 x38 +13 x39 <= 100
  c59: +0 x0 +0 x1 +0 x2 +0 x3 +9 x4 +19 x5 +10 x6 +0 x7 +0 x8 +17 x9 +0 x10 +11 x11 +0 x12 +6 x13 +0 x14 +0 x15 +0 x16 +12 x17 +12 x18 +0 x19 +0 x20 +0 x21 +15 x22 +11 x23 +0 x24 +0 x25 +6 x26 +9 x27 +17 x28 +0 x29 +2 x30 +14 x31 +0 x32 +0 x33 +0 x34 +7 x35 +0 x36 +14 x37 +0 x38 +0 x39 <= 60
  c60: +14 x0 +0 x1 +0 x2 +0 x3 +0 x4 +7 x5 +7 x6 +0 x7 +0 x8 +0 x9 +0 x10 +11 x11 +0 x12 +0 x13 +0 x14 +7 x15 +4 x16 +0 x17 +0 x18 +11 x19 +0 x20 +0 x21 +0 x22 +0 x23 +5 x24 +0 x25 +0 x26 +0 x27 +5 x28 +0 x29 +20 x30 +14 x31 +0 x32 +0 x33 +5 x34 +15 x35 +0 x36 +3 x37 +0 x38 +0 x39 <= 100
  c61: +20 x0 +5 x1 +0 x2 +7 x3 +0 x4 +0 x5 +5 x6 +0 x7 +0 x8 +0 x9 +0 x10 +0 x11 -1 x12 +0 x13 +0 x14 +5 x15 +17 x16 +5 x17 +2 x18 +0 x19 +0 x20 +0 x21 +0 x22 +1 x23 +0 x24 +0 x25 +0 x26 +0 x27 +0 x28 +6 x29 +15 x30 +0 x31 +0 x32 +0 x33 +0 x34 +7 x35 +4 x36 +0 x37 +9 x38 +17 x39 <= 64
  c62: +0 x0 +0 x1 +0 x2 +0 x3 +11 x4 +0 x5 +11 x6 +13 x7 +12 x8 +6 x9 +7 x10 +13 x11 +0 x12 +11 x13 +0 x14 +0 x15 +0 x16 +0 x17 +0 x18 +0 x19 +0 x20 +20 x21 +0 x22 +7 x23 +3 x24 +17 x25 +0 x26 +11 x27 +0 x28 +16 x29 +0 x30 +0 x31 +20 x32 +0 x33 +0 x34 +0 x35 +0 x36 +9 x37 +0 x38 +12 x39 <= 58
  c63: +0 x0 +0 x1 +0 x2 +2 x3 +0 x4 +15 x5 +0 x6 +0 x7 +0 x8 +0 x9 +10 x10 +0 x11 +3 x12 +18 x13 +20 x14 +19 x15 +18 x16 +5 x17 +19 x18 +20 x19 +1 x20 +0 x21 +15 x22 +0 x23 +0 x24 +0 x25 +0 x26 +0 x27 -1 x28 +2 x29 +0 x30 +0 x31 +0 x32 -1 x33 +0 x34 +7 x35 +0 x36 +0 x37 +10 x38 +19 x39 <= 95
  c64: -1 x0 +0 x1 +0 x2 +0 x3 +17 x4 +20 x5 +0 x6 +0 x7 -1 x8 +0 x9 +4 x10 +0 x11 +0 x12 +11 x13 +11 x14 +19 x15 +0 x16 +0 x17 +0 x18 +0 x19 +12 x20 +14 x21 +16 x22 +0 x23 +0 x24 +10 x25 +4 x26 +0 x27 +0 x28 +0 x29 +0 x30 +12 x31 +6 x32 +0 x33 +0 x34 -1 x35 +0 x36 +0 x37 +0 x38 +0 x39 <= 87
  c65: +3 x0 +5 x1 +10 x2 +0 x3 +3 x4 +0 x5 +0 x6 +13 x7 +0 x8 +0 x9 +0 x10 +20 x11 +11 x12 +0 x13 +4 x14 +4 x15 +0 x16 +0 x17 +15 x18 +0 x19 +0 x20 -1 x21 +18 x22 +0 x23 +0 x24 -1 x25 +0 x26 +20 x27 +4 x28 +4 x29 +0 x30 +0 x31 +1 x32 +5 x33 +0 x34 +6 x35 +0 x36 +9 x37 +0 x38 +7 x39 <= 58
  c66: +0 x0 +3 x1 +0 x2 +0 x3 +10 x4 +0 x5 +18 x6 +0 x7 +0 x8 +0 x9 +0 x10 +0 x11 +8 x12 +14 x13 +0 x14 +0 x15 +20 x16 +1 x17 +15 x18 +0 x19 +0 x20 +5 x21 +3 x22 +0 x23 +14 x24 +8 x25 +0 x26 +0 x27 +4 x28 +4 x29 +0 x30 +0 x31 +7 x32 +14 x33 +0 x34 +13 x35 +0 x36 -1 x37 +20 x38 +0 x39 <= 75
  c67: +0 x0 +0 x1 +13 x2 +17 x3 +0 x4 +0 x5 +9 x6 +1 x7 +0 x8 +10 x9 +0 x10 +0 x11 +0 x12 +1 x13 +14 x14 +0 x15 +13 x16 +0 x17 +0 x18 +14 x19 -1 x20 +0 x21 +0 x22 +8 x23 +0 x24 +13 x25 +14 x26 +0 x27 +0 x28 +0 x29 +1 x30 +19 x31 +3 x32 +6 x33 +11 x34 +0 x35 +7 x36 +0 x37 +0 x38 +10 x39 <= 63
  c68: +0 x0 +7 x1 +10 x2 +12 x3 +0 x4 +0 x5 +0 x6 +2 x7 +0 x8 +4 x9 +0 x10 +15 x11 +13 x12 +8 x13 -1 x14 +0 x15 +7 x16 +0 x17 +0 x18 +0 x19 +0 x20 +0 x21 +0 x22 +0 x23 +7 x24 +0 x25 +20 x26 +9 x27 +0 x28 +2 x29 +0 x30 +0 x31 +18 x32 +0 x33 +0 x34 +0 x35 +0 x36 -1 x37 +0 x38 +5 x39 <= 82
  c69: +0 x0 +0 x1 +0 x2 +0 x3 +0 x4 +0 x5 +0 x6 +0 x7 +16 x8 +20 x9 +15 x10 +0 x11 +1 x12 +4 x13 +0 x14 +0 x15 +0 x16 +0 x17 +0 x18 +12 x19 +16 x20 +0 x21 +16 x22 +0 x23 +0 x24 +19 x25 +0 x26 +0 x27 +17 x28 +0 x29 +14 x30 +11 x31 +16 x32 -1 x33 +0 x34 +2 x35 +17 x36 +5 x37 +0 x38 +0 x39 <= 91
  c70: +0 x0 +13 x1 +6 x2 +0 x3 +0 x4 +0 x5 +0 x6 +1 x7 +0 x8 +0 x9 +0 x10 +0 x11 +0 x12 +0 x13 +0 x14 +10 x15 +12 x16 +0 x17 +0 x18 +0 x19 +0 x20 +0 x21 +0 x22 +0 x23 +8 x24 +0 x25 +8 x26 +0 x27 +0 x28 +0 x29 +1 x30 +0 x31 +0 x32 +0 x33 +2 x34 +0 x35 +0 x36 +0 x37 +0 x38 +0 x39 <= 56
  c71: +5 x0 +17 x1 +0 x2 +18 x3 +0 x4 +0 x5 +0 x6 +0 x7 +0 x8 +0 x9 +0 x10 +1 x11 +0 x12 +5 x13 +0 x14 +0 x15 +0 x16 +17 x17 +0 x18 +0 x19 +0 x20 +0 x21 +0 x22 +0 x23 +6 x24 +19 x25 +20 x26 +19 x27 +1 x28 +0 x29 +0 x30 +0 x31 +0 x32 +0 x33 +0 x34 +1 x35 +5 x36 +0 x37 +12 x38 +4 x39 <= 61
  c72: +1 x0 +0 x1 +0 x2 +18 x3 +0 x4 +0 x5 +0 x6 +19 x7 +0 x8 +0 x9 +0 x10 +7 x11 +0 x12 +20 x13 -1 x14 +0 x15 +0 x16 +0 x17 +0 x18 +0 x19 +0 x20 +1 x21 +8 x22 +0 x23 +0 x24 +0 x25 +0 x26 +0 x27 +0 x28 +0 x29 +0 x30 +0 x31 +0 x32 +0 x33 +0 x34 +14 x35 +6 x36 +0 x37 +15 x38 +1 x39 <= 88
  c73: +0 x0 +14 x1 +19 x2 +7 x3 +15 x4 +0 x5 +0 x6 +6 x7 +6 x8 +0 x9 +0 x10 +0 x11 +9 x12 +0 x13 +0 x14 +10 x15 +0 x16 -1 x17 +0 x18 +17 x19 +2 x20 +20 x21 +0 x22 +0 x23 -1 x24 +0 x25 +18 x26 +13 x27 +8 x28 +0 x29 +6 x30 +7 x31 +0 x32 +1 x33 +1 x34 +19 x35 +0 x36 +6 x37 +0 x38 +10 x39 <= 53
  c74: +9 x0 +2 x1 +0 x2 +6 x3 +7 x4 +8 x5 +0 x6 +0 x7 +0 x8 +16 x9 +0 x10 +0 x11 +0 x12 +0 x13 +13 x14 +0 x15 +0 x16 +0 x17 +17 x18 +0 x19 +3 x20 +0 x21 +7 x22 +0 x23 +0 x24 +0 x25 +0 x26 +0 x27 +20 x28 +0 x29 +0 x30 +17 x31 +0 x32 +1 x33 +16 x34 +8 x35 +14 x36 +19 x37 +10 x38 +17 x39 <= 85
  c75: +0 x0 +0 x1 +0 x2 +6 x3 +0 x4 +17 x5 +0 x6 +7 x7 +3 x8 +8 x9 +20 x10 +0 x11 +5 x12 +3 x13 +0 x14 +12 x15 +0 x16 +0 x17 +0 x18 +5 x19 +8 x20 +2 x21 +0 x22 +0 x23 +0 x24 -1 x25 +0 x26 +0 x27 +18 x28 +0 x29 +16 x30 +0 x31 +0 x32 +11 x33 +0 x34 +8 x35 +0 x36 +15 x37 +0 x38 +1 x39 <= 74
  c76: +0 x0 +18 x1 +2 x2 +0 x3 +5 x4 +0 x5 +20 x6 +0 x7 +0 x8 +11 x9 +1 x10 +5 x11 +0 x12 +0 x13 +5 x14 +0 x15 +0 x16 +0 x17 +0 x18 +0 x19 +0 x20 +0 x21 +0 x22 +5 x23 +20 x24 +1 x25 +0 x26 +11 x27 +0 x28 +0 x29 +12 x30 +0 x31 +14 x32 +0 x33 +16 x34 +0 x35 -1 x36 +0 x37 +12 x38 +1 x39 <= 76
  c77: +0 x0 +12 x1 +0 x2 +0 x3 +8 x4 +13 x5 +11 x6 +18 x7 +11 x8 +0 x9 +8 x10 +5 x11 +7 x12 +0 x13 +0 x14 +14 x15 -1 x16 +0 x17 -1 x18 +0 x19 +0 x20 +0 x21 +7 x22 +6 x23 +0 x24 +0 x25 +0 x26 +4 x27 +12 x28 +0 x29 +0 x30 +0 x31 +16 x32 +16 x33 -1 x34 +12 x35 +14 x36 +0 x37 +8 x38 +12 x39 <= 78
  c78: +4 x0 +0 x1 +15 x2 +0 x3 +4 x4 -1 x5 +0 x6 +11 x7 +0 x8 +10 x9 +17 x10 +0 x11 +0 x12 +0 x13 +16 x14 +0 x15 +0 x16 +8 x17 +17 x18 +16 x19 +0 x20 +0 x21 +0 x22 +0 x23 +18 x24 +15 x25 +0 x26 +16 x27 +0 x28 +0 x29 +0 x30 +0 x31 +1 x32 +0 x33 +0 x34 +0 x35 +0 x36 +17 x37 +0 x38 +0 x39 <= 51
  c79: +2 x0 +0 x1 +10 x2 +18 x3 +0 x4 +0 x5 +2 x6 +17 x7 +18 x8 +5 x9 +12 x10 +0 x11 +0 x12 +0 x13 +13 x14 +0 x15 +8 x16 +12 x17 +19 x18 +12 x19 +18 x20 +0 x21 +0 x22 +0 x23 +19 x24 +9 x25 +16 x26 +0 x27 +4 x28 +0 x29 +3 x30 +11 x31 +8 x32 +0 x33 +0 x34 +0 x35 +0 x36 +19 x37 +0 x38 +0 x39 <= 62
  c80: + x40 + x41 + x42 + x43 + x44 + x45 + x46 + x47 + x48 + x49 + x50 + x51 + x52 + x53 + x54 + x55 + x56 + x57 + x58 + x59 + x60 + x61 + x62 + x63 + x64 + x65 + x66 + x67 + x68 + x69 + x70 + x71 + x72 + x73 + x74 + x75 + x76 + x77 + x78 + x79 <= 13.333333
Binary
 x40
 x41
 x42
 x43
 x44
 x45
 x46
 x47
 x48
 x49
 x50
 x51
 x52
 x53
 x54
 x55
 x56
 x57
 x58
 x59
 x60
 x61
 x62
 x63
 x64
 x65
 x66
 x67
 x68
 x69
 x70
 x71
 x72
 x73
 x74
 x75
 x76
 x77
 x78
 x79
End
